min: +Z_1+Z_2+Z_3+Z_4+Z_5+Z_6+Z_7+Z_8+Z_9+Z_10+Z_11+Z_12+Z_13+Z_14+Z_15+Z_16+Z_17+Z_18+Z_19+Z_20+Z_21;
min_num_usuarios: +Y_1+Y_2+Y_3+Y_4+Y_5+Y_6+Y_7+Y_8+Y_9+Y_10+Y_11+Y_12+Y_13+Y_14+Y_15+Y_16+Y_17>=17.000000;
Cobertura_usuario_1: Y_1<=Z_1+Z_2+Z_3+Z_16+Z_17+Z_18+Z_19+Z_20+Z_21;
Cobertura_usuario_2: Y_2<=Z_1+Z_2+Z_3+Z_14+Z_15+Z_16+Z_17+Z_18+Z_19+Z_20+Z_21;
Cobertura_usuario_3: Y_3<=Z_1+Z_2+Z_3+Z_4+Z_5+Z_14+Z_15+Z_16+Z_17+Z_19+Z_20+Z_21;
Cobertura_usuario_4: Y_4<=Z_2+Z_3+Z_14+Z_15+Z_16+Z_17+Z_18+Z_19+Z_21;
Cobertura_usuario_5: Y_5<=Z_1+Z_2+Z_3+Z_4+Z_14+Z_15+Z_16+Z_17+Z_18+Z_19+Z_20+Z_21;
Cobertura_usuario_6: Y_6<=Z_2+Z_3+Z_4+Z_5+Z_6+Z_7+Z_8+Z_15+Z_21;
Cobertura_usuario_7: Y_7<=Z_2+Z_3+Z_4+Z_5+Z_7+Z_8+Z_9+Z_14+Z_15+Z_16+Z_21;
Cobertura_usuario_8: Y_8<=Z_8+Z_9+Z_10+Z_11+Z_12+Z_13+Z_14+Z_15+Z_16+Z_21;
Cobertura_usuario_9: Y_9<=Z_9+Z_10+Z_11+Z_12+Z_13+Z_14+Z_15+Z_16;
Cobertura_usuario_10: Y_10<=Z_8+Z_9+Z_10+Z_11+Z_12+Z_13+Z_14+Z_15;
Cobertura_usuario_11: Y_11<=Z_3+Z_5+Z_7+Z_8+Z_9+Z_10+Z_14+Z_15+Z_21;
Cobertura_usuario_12: Y_12<=Z_3+Z_4+Z_5+Z_6+Z_7+Z_8+Z_9+Z_21;
Cobertura_usuario_13: Y_13<=Z_2+Z_3+Z_4+Z_5+Z_6+Z_7+Z_8+Z_9+Z_15+Z_21;
Cobertura_usuario_14: Y_14<=Z_8+Z_9+Z_10+Z_11+Z_12+Z_13+Z_14+Z_15+Z_16+Z_21;
Cobertura_usuario_15: Y_15<=Z_3+Z_8+Z_9+Z_10+Z_12+Z_13+Z_14+Z_15+Z_16+Z_21;
Cobertura_usuario_16: Y_16<=Z_7+Z_8+Z_9+Z_10+Z_11+Z_12+Z_14+Z_15+Z_21;
Cobertura_usuario_17: Y_17<=Z_1+Z_2+Z_14+Z_15+Z_16+Z_17+Z_18+Z_19+Z_20+Z_21;
binary Y_1, Y_2, Y_3, Y_4, Y_5, Y_6, Y_7, Y_8, Y_9, Y_10, Y_11, Y_12, Y_13, Y_14, Y_15, Y_16, Y_17, Z_1, Z_2, Z_3, Z_4, Z_5, Z_6, Z_7, Z_8, Z_9, Z_10, Z_11, Z_12, Z_13, Z_14, Z_15, Z_16, Z_17, Z_18, Z_19, Z_20, Z_21;
